

































































































36 28 63 19 56 
10 25 11 50 40 
12 59 38 16 33 
23 21 34 58 
6 51 45 44 54 
5 37 9 70 61 
60 29 73 20 
18 55 24 7 
26 27 0 46 69 
42 52 41 49 
31 22 74 64 35 
13 15 65 71 43 
39 57 32 3 
66 68 72 2 
48 17 30 14 75 
53 76 1 62 
4 67 8 47 
